WARNING: for repeatability, setting FPU to use double precision
============================[ Problem Statistics ]=============================
|                                                                             |
|  Number of variables:          6000                                         |
|  Number of clauses:           17901                                         |
|  Parse time:                   0.00 s                                       |
|                                                                             |
c ============================[ Search Statistics ]==============================
c | Conflicts |          ORIGINAL         |          LEARNT          | Progress |
c |           |    Vars  Clauses Literals |    Limit  Clauses Lit/Cl |          |
c ===============================================================================
We had 15 decisions of which only 0 were on extended
We had 110269 decisions of which only 0 were on extended
We had 167222 decisions of which only 0.00538207 were on extended
We had 223448 decisions of which only 0.0134259 were on extended
We had 292138 decisions of which only 0.0318343 were on extended
We had 346917 decisions of which only 0.0619745 were on extended
c Switched to VSIDS.
We had 362008 decisions of which only 0.059391 were on extended
We had 378034 decisions of which only 0.0568732 were on extended
We had 393250 decisions of which only 0.0546726 were on extended
We had 408550 decisions of which only 0.0526251 were on extended
We had 423654 decisions of which only 0.050749 were on extended
We had 439195 decisions of which only 0.0491809 were on extended
c Switched to LRB.
We had 453445 decisions of which only 0.0478559 were on extended
We had 467197 decisions of which only 0.0464472 were on extended
We had 481319 decisions of which only 0.0450844 were on extended
We had 495022 decisions of which only 0.0438364 were on extended
c ===============================================================================
restarts                  : 379
conflicts                 : 159404         (2160 /sec)
decisions                 : 507277         (0.00 % random) (6875 /sec)
propagations              : 91221096       (1236287 /sec)
conflict literals         : 8446250        (33.13 % deleted)

conflicts w/ DIP found    : 139095         (87.26 % of conflicts)
conflicts w/ dangerous DIP: 0              (0.00 % of conflicts)
conflicts w/ DIP-learning : 13             (0.01 % of conflicts)
decisions on ext vars     : 217            (0.04 % of decisions)
total ext vars            : 7           
tried delete ext vars     : 0           
deleted ext vars          : 0           
max ext vars              : 7           

Memory used               : 44.00 MB
CPU time                  : 73.7863 s
DIP computation time      : 1.94548 s (2.64 % of total time)
ER_sel time               : 0.17683 s
ER_add time               : 0.000393 s
ER_delC time              : 0 s
ER_delV time              : 0 s
ER_sub time               : 0.23954 s
ER_stat time              : 0 s

UNSATISFIABLE
